&control
  calculation = 'scf'
  prefix='PbGeR3',
  tstress = .true.
  tprnfor = .true.
  pseudo_dir = './',
  outdir='./work/'
  wf_collect=.true.
/

&system
  ibrav=  4, 
  celldm(1) =13.00465916,
  celldm(3) = 1.414212982,
  nat = 26, 
  ntyp = 2,
  ecutwfc =18.0,
/

&electrons
  mixing_beta = 0.7
  conv_thr =  1.0d-8
/
ATOMIC_SPECIES
  Ge  28.086  Ge.pz-vbc.UPF
ATOMIC_POSITIONS {crystal}
  Ge 0.00 0.00 0.00
  Ge 0.333333333 0.666666666 0
  Ge 0.666666666 0.333333333 0
  Ge 0 0 0.25
  Ge 0.333333333 0.666666666 0.25
  Ge 0.666666666 0.333333333 0.25
  Ge 0 0.75 0.333333333
  Ge 0.25 0.25 0.333333333
  Ge 0.75 0 0.333333333
  Ge 1 0.75 0.333333333
  Ge 0.75 1 0.333333333
  Ge 0.75 0 0.583333333
  Ge 0.25 0.25 0.583333333
  Ge 1 0.75 0.583333333
  Ge 0 0.75 0.583333333
  Ge 0.75 1 0.583333333
  Ge 0.25 0 0.666666666
  Ge 0 0.25 0.666666666
  Ge 1 0.25 0.666666666
  Ge 0.75 0.75 0.666666666
  Ge 0.25 0.75 0.666666666
  Ge 0.25 0 0.916666666
  Ge 0 0.25 0.916666666
  Ge 1 0.25 0.916666666
  Ge 0.75 0.75 0.916666666
  Ge 0.25 1 0.916666666
K_POINTS {automatic}
  12 12 12 0 0 0
